25
923 529 297 693 907 542 693 401 280 785 272 470 988 509 592 913 831 740 858 451 269 488 355 566 269
272 470 988 509 592 913 831 740 858 451 923 529 297 693 907 542 693 401 280 785 170 340 410 434 269